100
100
98
97
97
96
96
95
95
95
95
92
92
92
91
91
91
91
90
88
87
86
85
83
82
81
80
79
77
76
76
75
75
75
74
74
72
72
72
71
71
71
70
70
70
69
69
68
67
65
65
64
63
63
62
62
62
61
61
60
59
59
59
59
58
58
56
56
55
55
52
51
50
48
48
47
47
47
46
45
44
44
42
42
42
41
40
39
38
36
36
36
35
35
35
35
34
32
32
32
30
30
